
Gurobi 11.0.2 (linux64) logging started Tue 03 Dec 2024 09:04:09 AM CET

Set parameter LogFile to value "./res/knapPI_11_50_1000/knapPI_11_50_1000_24/grb_dom.log"
Set parameter Presolve to value 0
Set parameter Aggregate to value 0
Set parameter Heuristics to value 0
Set parameter LPWarmStart to value 0
Set parameter NLPHeur to value 0
Set parameter PreDepRow to value 0
Set parameter PreDual to value 0
Set parameter RINS to value 0
Set parameter Symmetry to value 0
Set parameter NodeLimit to value 1
Set parameter Threads to value 1

Gurobi 11.0.2 (linux64) logging started Tue 03 Dec 2024 09:04:12 AM CET

Set parameter LogFile to value "./res/knapPI_11_50_1000/knapPI_11_50_1000_24/grb_dom.log"
Set parameter NLPHeur to value 0
Set parameter LPWarmStart to value 0
Set parameter PreDepRow to value 0
Set parameter Symmetry to value 0
Set parameter Presolve to value 0
Gurobi Optimizer version 11.0.2 build v11.0.2rc0 (linux64 - "Pop!_OS 20.04 LTS")

CPU model: Intel(R) Core(TM) i7-8650U CPU @ 1.90GHz, instruction set [SSE2|AVX|AVX2]
Thread count: 4 physical cores, 4 logical processors, using up to 1 threads

Optimize a model with 31918 rows, 50 columns and 925672 nonzeros
Model fingerprint: 0x94837c88
Variable types: 0 continuous, 50 integer (50 binary)
Coefficient statistics:
  Matrix range     [1e+00, 1e+02]
  Objective range  [5e+01, 1e+03]
  Bounds range     [0e+00, 0e+00]
  RHS range        [6e+02, 6e+02]
Variable types: 0 continuous, 50 integer (50 binary)

Root relaxation: objective 9.999429e+03, 38 iterations, 0.28 seconds (0.10 work units)

    Nodes    |    Current Node    |     Objective Bounds      |     Work
 Expl Unexpl |  Obj  Depth IntInf | Incumbent    BestBd   Gap | It/Node Time

     0     0 9999.42857    0    1          - 9999.42857      -     -    0s
     0     0 9999.42857    0    1          - 9999.42857      -     -    1s
     0     0 9999.42857    0    2          - 9999.42857      -     -    1s
     0     0 9999.42857    0    4          - 9999.42857      -     -    2s
     0     0 9999.42857    0    2          - 9999.42857      -     -    2s
     0     0 9999.42857    0    2          - 9999.42857      -     -    2s
     0     0 9999.42857    0    6          - 9999.42857      -     -    3s
*    0     0               0    9918.0000000 9918.00000  0.00%     -    4s

Cutting planes:
  Cover: 2
  MIR: 6
  StrongCG: 1
  RLT: 2

Explored 1 nodes (50 simplex iterations) in 4.15 seconds (2.88 work units)
Thread count was 1 (of 4 available processors)

Solution count 1: 9918 

Optimal solution found (tolerance 1.00e-04)
Best objective 9.918000000000e+03, best bound 9.918000000000e+03, gap 0.0000%

User-callback calls 1625, time in user-callback 0.01 sec
opt = true
obj = 9918.0
nb_dom_cuts = 31917
solved_time = 4.1544
opt_val = 9918.0
